70
1 0 45
2 0 32
2 1 43
3 0 58
3 1 30
3 2 27
4 0 29
4 1 35
4 2 18
4 3 15
5 0 36
5 1 35
5 2 1
5 3 28
5 4 26
6 0 33
6 1 54
6 2 43
6 3 7
6 4 18
6 5 4
7 0 36
7 1 4
7 2 44
7 3 39
7 4 4
7 5 41
7 6 31
8 0 30
8 1 46
8 2 52
8 3 10
8 4 14
8 5 50
8 6 43
8 7 14
9 0 25
9 1 20
9 2 11
9 3 36
9 4 52
9 5 13
9 6 31
9 7 22
9 8 1
10 0 34
10 1 3
10 2 40
10 3 47
10 4 27
10 5 26
10 6 30
10 7 31
10 8 31
10 9 26
11 0 5
11 1 56
11 2 36
11 3 57
11 4 54
11 5 16
11 6 25
11 7 43
11 8 1
11 9 30
11 10 27
12 0 4
12 1 12
12 2 9
12 3 36
12 4 35
12 5 34
12 6 28
12 7 55
12 8 30
12 9 5
12 10 8
12 11 59
13 0 12
13 1 31
13 2 58
13 3 20
13 4 15
13 5 44
13 6 59
13 7 2
13 8 46
13 9 2
13 10 57
13 11 31
13 12 57
14 0 26
14 1 21
14 2 14
14 3 17
14 4 42
14 5 19
14 6 34
14 7 35
14 8 44
14 9 49
14 10 5
14 11 54
14 12 32
14 13 28
15 0 24
15 1 3
15 2 51
15 3 26
15 4 44
15 5 15
15 6 18
15 7 29
15 8 14
15 9 60
15 10 34
15 11 10
15 12 49
15 13 26
15 14 48
16 0 30
16 1 33
16 2 34
16 3 30
16 4 50
16 5 19
16 6 10
16 7 31
16 8 46
16 9 7
16 10 25
16 11 47
16 12 1
16 13 19
16 14 17
16 15 8
17 0 1
17 1 31
17 2 33
17 3 4
17 4 22
17 5 57
17 6 34
17 7 33
17 8 26
17 9 44
17 10 35
17 11 4
17 12 54
17 13 12
17 14 60
17 15 37
17 16 52
18 0 10
18 1 47
18 2 15
18 3 50
18 4 50
18 5 11
18 6 25
18 7 47
18 8 49
18 9 20
18 10 16
18 11 11
18 12 22
18 13 16
18 14 26
18 15 23
18 16 49
18 17 38
19 0 23
19 1 2
19 2 50
19 3 3
19 4 58
19 5 24
19 6 4
19 7 48
19 8 44
19 9 36
19 10 59
19 11 33
19 12 37
19 13 13
19 14 27
19 15 1
19 16 31
19 17 51
19 18 1
20 0 49
20 1 6
20 2 32
20 3 57
20 4 13
20 5 59
20 6 2
20 7 46
20 8 7
20 9 54
20 10 26
20 11 23
20 12 39
20 13 32
20 14 42
20 15 34
20 16 23
20 17 23
20 18 56
20 19 2
21 0 43
21 1 26
21 2 37
21 3 25
21 4 10
21 5 49
21 6 57
21 7 60
21 8 37
21 9 42
21 10 13
21 11 55
21 12 38
21 13 45
21 14 47
21 15 20
21 16 28
21 17 34
21 18 57
21 19 27
21 20 18
22 0 15
22 1 1
22 2 51
22 3 3
22 4 17
22 5 8
22 6 8
22 7 35
22 8 37
22 9 55
22 10 58
22 11 6
22 12 15
22 13 42
22 14 6
22 15 15
22 16 56
22 17 10
22 18 55
22 19 13
22 20 38
22 21 30
23 0 29
23 1 40
23 2 3
23 3 19
23 4 11
23 5 19
23 6 19
23 7 24
23 8 39
23 9 49
23 10 26
23 11 19
23 12 14
23 13 45
23 14 18
23 15 2
23 16 20
23 17 19
23 18 25
23 19 54
23 20 29
23 21 50
23 22 26
24 0 24
24 1 52
24 2 3
24 3 19
24 4 4
24 5 38
24 6 10
24 7 34
24 8 53
24 9 18
24 10 49
24 11 2
24 12 23
24 13 5
24 14 23
24 15 9
24 16 19
24 17 47
24 18 41
24 19 28
24 20 22
24 21 51
24 22 37
24 23 7
25 0 28
25 1 36
25 2 20
25 3 20
25 4 38
25 5 33
25 6 18
25 7 18
25 8 26
25 9 41
25 10 56
25 11 52
25 12 19
25 13 50
25 14 54
25 15 2
25 16 39
25 17 39
25 18 16
25 19 1
25 20 4
25 21 50
25 22 57
25 23 30
25 24 35
26 0 21
26 1 18
26 2 23
26 3 21
26 4 15
26 5 47
26 6 60
26 7 12
26 8 59
26 9 51
26 10 41
26 11 25
26 12 19
26 13 47
26 14 6
26 15 8
26 16 35
26 17 54
26 18 59
26 19 30
26 20 22
26 21 24
26 22 46
26 23 27
26 24 18
26 25 56
27 0 30
27 1 42
27 2 23
27 3 24
27 4 12
27 5 19
27 6 53
27 7 51
27 8 7
27 9 4
27 10 4
27 11 8
27 12 51
27 13 10
27 14 57
27 15 2
27 16 22
27 17 27
27 18 60
27 19 56
27 20 60
27 21 47
27 22 33
27 23 57
27 24 22
27 25 28
27 26 11
28 0 32
28 1 33
28 2 50
28 3 28
28 4 46
28 5 4
28 6 14
28 7 44
28 8 42
28 9 26
28 10 22
28 11 50
28 12 42
28 13 23
28 14 19
28 15 1
28 16 40
28 17 8
28 18 54
28 19 27
28 20 18
28 21 52
28 22 20
28 23 51
28 24 4
28 25 56
28 26 9
28 27 28
29 0 27
29 1 1
29 2 48
29 3 12
29 4 32
29 5 15
29 6 36
29 7 43
29 8 17
29 9 17
29 10 44
29 11 51
29 12 40
29 13 36
29 14 43
29 15 26
29 16 51
29 17 41
29 18 19
29 19 42
29 20 55
29 21 45
29 22 49
29 23 39
29 24 48
29 25 5
29 26 24
29 27 1
29 28 41
30 0 30
30 1 46
30 2 56
30 3 36
30 4 6
30 5 14
30 6 12
30 7 20
30 8 34
30 9 14
30 10 51
30 11 51
30 12 38
30 13 43
30 14 32
30 15 32
30 16 15
30 17 50
30 18 40
30 19 19
30 20 6
30 21 6
30 22 34
30 23 21
30 24 60
30 25 46
30 26 57
30 27 47
30 28 18
30 29 12
31 0 28
31 1 47
31 2 53
31 3 23
31 4 17
31 5 48
31 6 52
31 7 57
31 8 47
31 9 3
31 10 5
31 11 15
31 12 50
31 13 13
31 14 23
31 15 33
31 16 22
31 17 14
31 18 58
31 19 7
31 20 10
31 21 29
31 22 16
31 23 55
31 24 50
31 25 47
31 26 25
31 27 21
31 28 52
31 29 2
31 30 2
32 0 49
32 1 53
32 2 20
32 3 49
32 4 25
32 5 24
32 6 6
32 7 33
32 8 7
32 9 14
32 10 17
32 11 3
32 12 42
32 13 41
32 14 48
32 15 33
32 16 54
32 17 39
32 18 50
32 19 17
32 20 18
32 21 4
32 22 38
32 23 14
32 24 41
32 25 21
32 26 47
32 27 45
32 28 22
32 29 56
32 30 15
32 31 58
33 0 19
33 1 34
33 2 39
33 3 23
33 4 18
33 5 40
33 6 33
33 7 15
33 8 12
33 9 27
33 10 39
33 11 24
33 12 28
33 13 25
33 14 10
33 15 45
33 16 7
33 17 11
33 18 60
33 19 36
33 20 51
33 21 58
33 22 14
33 23 24
33 24 18
33 25 32
33 26 4
33 27 48
33 28 10
33 29 34
33 30 27
33 31 52
33 32 11
34 0 23
34 1 49
34 2 1
34 3 52
34 4 53
34 5 39
34 6 55
34 7 27
34 8 50
34 9 6
34 10 34
34 11 45
34 12 54
34 13 26
34 14 6
34 15 39
34 16 19
34 17 20
34 18 4
34 19 24
34 20 50
34 21 23
34 22 27
34 23 9
34 24 15
34 25 55
34 26 22
34 27 8
34 28 3
34 29 26
34 30 29
34 31 41
34 32 37
34 33 3
35 0 18
35 1 51
35 2 8
35 3 44
35 4 10
35 5 13
35 6 13
35 7 21
35 8 26
35 9 27
35 10 46
35 11 38
35 12 11
35 13 26
35 14 47
35 15 48
35 16 31
35 17 6
35 18 51
35 19 15
35 20 11
35 21 27
35 22 45
35 23 35
35 24 10
35 25 2
35 26 23
35 27 6
35 28 26
35 29 16
35 30 55
35 31 10
35 32 2
35 33 13
35 34 43
36 0 22
36 1 14
36 2 26
36 3 44
36 4 16
36 5 14
36 6 33
36 7 22
36 8 10
36 9 53
36 10 18
36 11 36
36 12 9
36 13 22
36 14 5
36 15 24
36 16 26
36 17 30
36 18 40
36 19 33
36 20 42
36 21 41
36 22 27
36 23 14
36 24 56
36 25 7
36 26 2
36 27 9
36 28 58
36 29 59
36 30 34
36 31 2
36 32 48
36 33 52
36 34 58
36 35 47
37 0 21
37 1 28
37 2 35
37 3 38
37 4 10
37 5 23
37 6 25
37 7 59
37 8 18
37 9 28
37 10 48
37 11 54
37 12 23
37 13 14
37 14 58
37 15 22
37 16 40
37 17 8
37 18 10
37 19 46
37 20 20
37 21 40
37 22 2
37 23 23
37 24 36
37 25 50
37 26 38
37 27 31
37 28 18
37 29 15
37 30 5
37 31 51
37 32 3
37 33 47
37 34 57
37 35 59
37 36 57
38 0 57
38 1 39
38 2 19
38 3 46
38 4 7
38 5 31
38 6 48
38 7 51
38 8 8
38 9 33
38 10 59
38 11 6
38 12 20
38 13 36
38 14 38
38 15 7
38 16 47
38 17 49
38 18 43
38 19 2
38 20 11
38 21 32
38 22 34
38 23 39
38 24 53
38 25 48
38 26 30
38 27 11
38 28 54
38 29 24
38 30 15
38 31 24
38 32 58
38 33 59
38 34 55
38 35 4
38 36 53
38 37 39
39 0 22
39 1 12
39 2 41
39 3 5
39 4 12
39 5 10
39 6 37
39 7 10
39 8 51
39 9 50
39 10 41
39 11 41
39 12 16
39 13 25
39 14 19
39 15 19
39 16 22
39 17 29
39 18 31
39 19 18
39 20 15
39 21 25
39 22 31
39 23 25
39 24 35
39 25 21
39 26 44
39 27 58
39 28 6
39 29 5
39 30 30
39 31 12
39 32 42
39 33 55
39 34 6
39 35 8
39 36 43
39 37 4
39 38 47
40 0 45
40 1 40
40 2 13
40 3 2
40 4 13
40 5 58
40 6 30
40 7 11
40 8 18
40 9 52
40 10 40
40 11 2
40 12 23
40 13 26
40 14 35
40 15 12
40 16 36
40 17 22
40 18 1
40 19 26
40 20 3
40 21 59
40 22 33
40 23 53
40 24 10
40 25 34
40 26 57
40 27 10
40 28 34
40 29 1
40 30 25
40 31 55
40 32 4
40 33 31
40 34 36
40 35 46
40 36 37
40 37 35
40 38 3
40 39 19
41 0 30
41 1 38
41 2 49
41 3 21
41 4 49
41 5 11
41 6 8
41 7 19
41 8 7
41 9 4
41 10 26
41 11 3
41 12 2
41 13 25
41 14 21
41 15 54
41 16 56
41 17 21
41 18 7
41 19 12
41 20 56
41 21 19
41 22 36
41 23 22
41 24 2
41 25 56
41 26 16
41 27 4
41 28 8
41 29 34
41 30 15
41 31 41
41 32 2
41 33 51
41 34 37
41 35 22
41 36 46
41 37 17
41 38 32
41 39 56
41 40 3
42 0 12
42 1 48
42 2 11
42 3 28
42 4 55
42 5 4
42 6 21
42 7 40
42 8 57
42 9 33
42 10 53
42 11 51
42 12 28
42 13 15
42 14 37
42 15 16
42 16 25
42 17 55
42 18 17
42 19 29
42 20 56
42 21 5
42 22 39
42 23 29
42 24 6
42 25 14
42 26 50
42 27 12
42 28 6
42 29 41
42 30 40
42 31 52
42 32 14
42 33 55
42 34 6
42 35 3
42 36 31
42 37 13
42 38 53
42 39 45
42 40 39
42 41 4
43 0 14
43 1 29
43 2 49
43 3 39
43 4 13
43 5 27
43 6 20
43 7 5
43 8 45
43 9 13
43 10 14
43 11 48
43 12 50
43 13 23
43 14 21
43 15 44
43 16 15
43 17 19
43 18 28
43 19 19
43 20 42
43 21 46
43 22 28
43 23 34
43 24 30
43 25 4
43 26 43
43 27 49
43 28 50
43 29 12
43 30 5
43 31 37
43 32 30
43 33 54
43 34 10
43 35 3
43 36 40
43 37 39
43 38 54
43 39 26
43 40 48
43 41 8
43 42 25
44 0 14
44 1 5
44 2 33
44 3 52
44 4 32
44 5 48
44 6 54
44 7 36
44 8 22
44 9 37
44 10 9
44 11 57
44 12 60
44 13 31
44 14 45
44 15 25
44 16 41
44 17 14
44 18 1
44 19 6
44 20 39
44 21 2
44 22 29
44 23 38
44 24 12
44 25 19
44 26 54
44 27 59
44 28 20
44 29 34
44 30 46
44 31 45
44 32 18
44 33 17
44 34 32
44 35 4
44 36 43
44 37 17
44 38 46
44 39 2
44 40 26
44 41 16
44 42 56
44 43 23
45 0 13
45 1 35
45 2 41
45 3 44
45 4 54
45 5 36
45 6 39
45 7 40
45 8 30
45 9 15
45 10 21
45 11 37
45 12 39
45 13 20
45 14 28
45 15 5
45 16 6
45 17 60
45 18 41
45 19 43
45 20 20
45 21 21
45 22 3
45 23 26
45 24 31
45 25 55
45 26 11
45 27 29
45 28 9
45 29 47
45 30 5
45 31 2
45 32 30
45 33 19
45 34 16
45 35 59
45 36 10
45 37 57
45 38 22
45 39 48
45 40 53
45 41 27
45 42 43
45 43 38
45 44 14
46 0 30
46 1 16
46 2 13
46 3 31
46 4 39
46 5 55
46 6 57
46 7 31
46 8 5
46 9 16
46 10 31
46 11 40
46 12 21
46 13 13
46 14 46
46 15 39
46 16 24
46 17 54
46 18 38
46 19 43
46 20 30
46 21 4
46 22 34
46 23 15
46 24 38
46 25 40
46 26 28
46 27 13
46 28 51
46 29 22
46 30 17
46 31 25
46 32 13
46 33 21
46 34 49
46 35 10
46 36 43
46 37 24
46 38 5
46 39 20
46 40 7
46 41 21
46 42 40
46 43 53
46 44 32
46 45 11
47 0 43
47 1 51
47 2 24
47 3 30
47 4 18
47 5 48
47 6 53
47 7 16
47 8 53
47 9 25
47 10 15
47 11 43
47 12 29
47 13 1
47 14 21
47 15 1
47 16 7
47 17 45
47 18 22
47 19 15
47 20 38
47 21 55
47 22 48
47 23 25
47 24 43
47 25 52
47 26 48
47 27 49
47 28 7
47 29 10
47 30 37
47 31 3
47 32 4
47 33 59
47 34 60
47 35 10
47 36 24
47 37 6
47 38 14
47 39 1
47 40 10
47 41 45
47 42 37
47 43 42
47 44 25
47 45 26
47 46 33
48 0 45
48 1 34
48 2 14
48 3 15
48 4 24
48 5 40
48 6 13
48 7 57
48 8 52
48 9 17
48 10 19
48 11 4
48 12 54
48 13 47
48 14 18
48 15 51
48 16 52
48 17 25
48 18 57
48 19 16
48 20 50
48 21 32
48 22 49
48 23 3
48 24 52
48 25 32
48 26 37
48 27 33
48 28 16
48 29 29
48 30 29
48 31 37
48 32 24
48 33 48
48 34 44
48 35 27
48 36 32
48 37 4
48 38 38
48 39 27
48 40 48
48 41 59
48 42 22
48 43 24
48 44 1
48 45 10
48 46 12
48 47 31
49 0 5
49 1 3
49 2 44
49 3 2
49 4 24
49 5 22
49 6 27
49 7 39
49 8 14
49 9 45
49 10 6
49 11 55
49 12 57
49 13 31
49 14 34
49 15 9
49 16 55
49 17 44
49 18 27
49 19 44
49 20 6
49 21 60
49 22 9
49 23 49
49 24 48
49 25 40
49 26 33
49 27 45
49 28 8
49 29 20
49 30 21
49 31 47
49 32 3
49 33 55
49 34 46
49 35 46
49 36 13
49 37 33
49 38 6
49 39 59
49 40 41
49 41 13
49 42 18
49 43 28
49 44 32
49 45 46
49 46 52
49 47 10
49 48 53
50 0 49
50 1 12
50 2 1
50 3 41
50 4 35
50 5 38
50 6 39
50 7 19
50 8 44
50 9 42
50 10 22
50 11 12
50 12 47
50 13 13
50 14 43
50 15 25
50 16 30
50 17 24
50 18 32
50 19 26
50 20 41
50 21 57
50 22 32
50 23 26
50 24 51
50 25 53
50 26 41
50 27 28
50 28 55
50 29 43
50 30 56
50 31 50
50 32 2
50 33 57
50 34 14
50 35 22
50 36 50
50 37 11
50 38 35
50 39 12
50 40 6
50 41 21
50 42 46
50 43 32
50 44 18
50 45 37
50 46 3
50 47 26
50 48 43
50 49 18
51 0 52
51 1 26
51 2 8
51 3 41
51 4 17
51 5 45
51 6 58
51 7 23
51 8 49
51 9 17
51 10 54
51 11 1
51 12 56
51 13 40
51 14 44
51 15 8
51 16 14
51 17 10
51 18 30
51 19 38
51 20 9
51 21 57
51 22 1
51 23 8
51 24 36
51 25 15
51 26 58
51 27 8
51 28 13
51 29 31
51 30 52
51 31 48
51 32 40
51 33 15
51 34 60
51 35 51
51 36 33
51 37 18
51 38 17
51 39 38
51 40 41
51 41 60
51 42 52
51 43 39
51 44 43
51 45 6
51 46 37
51 47 7
51 48 43
51 49 29
51 50 1
52 0 51
52 1 42
52 2 16
52 3 2
52 4 12
52 5 37
52 6 38
52 7 59
52 8 33
52 9 8
52 10 32
52 11 29
52 12 22
52 13 8
52 14 56
52 15 1
52 16 15
52 17 57
52 18 38
52 19 40
52 20 10
52 21 38
52 22 34
52 23 3
52 24 55
52 25 52
52 26 1
52 27 34
52 28 34
52 29 5
52 30 23
52 31 22
52 32 13
52 33 18
52 34 22
52 35 54
52 36 37
52 37 29
52 38 36
52 39 36
52 40 15
52 41 13
52 42 14
52 43 17
52 44 58
52 45 38
52 46 60
52 47 27
52 48 25
52 49 15
52 50 30
52 51 12
53 0 40
53 1 27
53 2 11
53 3 43
53 4 52
53 5 50
53 6 55
53 7 35
53 8 51
53 9 25
53 10 10
53 11 4
53 12 60
53 13 42
53 14 26
53 15 28
53 16 45
53 17 46
53 18 60
53 19 3
53 20 35
53 21 15
53 22 42
53 23 4
53 24 30
53 25 40
53 26 48
53 27 60
53 28 58
53 29 20
53 30 20
53 31 58
53 32 19
53 33 12
53 34 46
53 35 2
53 36 46
53 37 55
53 38 17
53 39 43
53 40 29
53 41 22
53 42 39
53 43 58
53 44 46
53 45 8
53 46 59
53 47 33
53 48 42
53 49 49
53 50 11
53 51 25
53 52 21
54 0 16
54 1 43
54 2 35
54 3 11
54 4 44
54 5 59
54 6 41
54 7 2
54 8 5
54 9 39
54 10 2
54 11 14
54 12 12
54 13 21
54 14 59
54 15 29
54 16 8
54 17 3
54 18 56
54 19 31
54 20 58
54 21 35
54 22 16
54 23 47
54 24 19
54 25 21
54 26 55
54 27 42
54 28 40
54 29 14
54 30 33
54 31 7
54 32 27
54 33 11
54 34 29
54 35 59
54 36 13
54 37 49
54 38 49
54 39 39
54 40 16
54 41 22
54 42 19
54 43 54
54 44 56
54 45 30
54 46 15
54 47 56
54 48 6
54 49 56
54 50 3
54 51 56
54 52 43
54 53 9
55 0 20
55 1 28
55 2 17
55 3 58
55 4 8
55 5 33
55 6 55
55 7 30
55 8 60
55 9 40
55 10 7
55 11 30
55 12 14
55 13 1
55 14 21
55 15 41
55 16 49
55 17 9
55 18 25
55 19 20
55 20 31
55 21 29
55 22 53
55 23 40
55 24 13
55 25 25
55 26 60
55 27 54
55 28 37
55 29 2
55 30 18
55 31 15
55 32 39
55 33 42
55 34 23
55 35 53
55 36 30
55 37 57
55 38 42
55 39 57
55 40 53
55 41 26
55 42 31
55 43 1
55 44 57
55 45 54
55 46 4
55 47 25
55 48 12
55 49 37
55 50 52
55 51 40
55 52 59
55 53 21
55 54 30
56 0 41
56 1 45
56 2 2
56 3 26
56 4 32
56 5 50
56 6 55
56 7 37
56 8 1
56 9 43
56 10 21
56 11 5
56 12 8
56 13 55
56 14 60
56 15 31
56 16 35
56 17 49
56 18 50
56 19 49
56 20 25
56 21 24
56 22 15
56 23 57
56 24 45
56 25 26
56 26 15
56 27 30
56 28 9
56 29 41
56 30 23
56 31 7
56 32 5
56 33 9
56 34 10
56 35 21
56 36 28
56 37 29
56 38 47
56 39 40
56 40 8
56 41 58
56 42 34
56 43 55
56 44 9
56 45 51
56 46 30
56 47 13
56 48 51
56 49 49
56 50 47
56 51 59
56 52 8
56 53 51
56 54 2
56 55 6
57 0 41
57 1 53
57 2 47
57 3 44
57 4 41
57 5 3
57 6 29
57 7 48
57 8 33
57 9 8
57 10 49
57 11 56
57 12 45
57 13 47
57 14 28
57 15 24
57 16 17
57 17 39
57 18 15
57 19 27
57 20 7
57 21 12
57 22 29
57 23 49
57 24 60
57 25 12
57 26 59
57 27 42
57 28 44
57 29 56
57 30 59
57 31 5
57 32 56
57 33 40
57 34 55
57 35 27
57 36 38
57 37 54
57 38 51
57 39 16
57 40 20
57 41 37
57 42 1
57 43 34
57 44 18
57 45 20
57 46 42
57 47 41
57 48 35
57 49 44
57 50 28
57 51 4
57 52 28
57 53 11
57 54 29
57 55 31
57 56 36
58 0 29
58 1 24
58 2 13
58 3 18
58 4 42
58 5 58
58 6 47
58 7 21
58 8 35
58 9 39
58 10 50
58 11 19
58 12 22
58 13 30
58 14 52
58 15 36
58 16 41
58 17 16
58 18 40
58 19 19
58 20 1
58 21 38
58 22 11
58 23 55
58 24 51
58 25 50
58 26 60
58 27 12
58 28 18
58 29 4
58 30 29
58 31 50
58 32 20
58 33 38
58 34 21
58 35 58
58 36 22
58 37 30
58 38 22
58 39 14
58 40 4
58 41 47
58 42 20
58 43 19
58 44 47
58 45 37
58 46 23
58 47 54
58 48 31
58 49 53
58 50 37
58 51 37
58 52 54
58 53 10
58 54 16
58 55 24
58 56 10
58 57 52
59 0 8
59 1 22
59 2 13
59 3 10
59 4 52
59 5 58
59 6 23
59 7 23
59 8 18
59 9 8
59 10 16
59 11 1
59 12 10
59 13 51
59 14 1
59 15 15
59 16 31
59 17 58
59 18 36
59 19 59
59 20 1
59 21 35
59 22 16
59 23 31
59 24 41
59 25 6
59 26 7
59 27 26
59 28 57
59 29 46
59 30 19
59 31 32
59 32 58
59 33 25
59 34 39
59 35 28
59 36 38
59 37 44
59 38 15
59 39 47
59 40 37
59 41 3
59 42 51
59 43 23
59 44 33
59 45 45
59 46 44
59 47 34
59 48 4
59 49 42
59 50 17
59 51 20
59 52 14
59 53 7
59 54 56
59 55 24
59 56 56
59 57 10
59 58 49
60 0 7
60 1 42
60 2 46
60 3 16
60 4 31
60 5 32
60 6 39
60 7 16
60 8 55
60 9 30
60 10 44
60 11 22
60 12 51
60 13 6
60 14 6
60 15 28
60 16 14
60 17 53
60 18 15
60 19 51
60 20 12
60 21 33
60 22 29
60 23 13
60 24 52
60 25 44
60 26 36
60 27 21
60 28 55
60 29 6
60 30 4
60 31 2
60 32 55
60 33 30
60 34 35
60 35 16
60 36 41
60 37 15
60 38 33
60 39 41
60 40 1
60 41 50
60 42 51
60 43 54
60 44 52
60 45 39
60 46 15
60 47 18
60 48 27
60 49 24
60 50 45
60 51 14
60 52 2
60 53 28
60 54 14
60 55 38
60 56 32
60 57 18
60 58 4
60 59 1
61 0 53
61 1 31
61 2 21
61 3 39
61 4 58
61 5 35
61 6 16
61 7 45
61 8 28
61 9 52
61 10 16
61 11 12
61 12 18
61 13 35
61 14 42
61 15 40
61 16 49
61 17 15
61 18 29
61 19 21
61 20 28
61 21 9
61 22 16
61 23 48
61 24 41
61 25 4
61 26 12
61 27 30
61 28 31
61 29 43
61 30 59
61 31 3
61 32 2
61 33 2
61 34 16
61 35 12
61 36 9
61 37 29
61 38 4
61 39 11
61 40 21
61 41 21
61 42 2
61 43 54
61 44 41
61 45 8
61 46 55
61 47 3
61 48 45
61 49 50
61 50 11
61 51 15
61 52 47
61 53 49
61 54 42
61 55 36
61 56 1
61 57 17
61 58 22
61 59 25
61 60 37
62 0 44
62 1 36
62 2 3
62 3 21
62 4 52
62 5 9
62 6 54
62 7 38
62 8 51
62 9 55
62 10 4
62 11 8
62 12 51
62 13 29
62 14 25
62 15 56
62 16 16
62 17 43
62 18 53
62 19 14
62 20 11
62 21 29
62 22 13
62 23 18
62 24 45
62 25 19
62 26 32
62 27 27
62 28 38
62 29 55
62 30 32
62 31 38
62 32 53
62 33 23
62 34 4
62 35 35
62 36 36
62 37 51
62 38 27
62 39 10
62 40 23
62 41 47
62 42 45
62 43 29
62 44 29
62 45 7
62 46 52
62 47 2
62 48 2
62 49 11
62 50 21
62 51 44
62 52 52
62 53 47
62 54 55
62 55 44
62 56 46
62 57 10
62 58 23
62 59 26
62 60 8
62 61 32
63 0 27
63 1 51
63 2 27
63 3 24
63 4 26
63 5 31
63 6 60
63 7 8
63 8 60
63 9 33
63 10 45
63 11 8
63 12 24
63 13 13
63 14 22
63 15 43
63 16 51
63 17 36
63 18 39
63 19 41
63 20 57
63 21 1
63 22 5
63 23 4
63 24 28
63 25 4
63 26 5
63 27 26
63 28 41
63 29 48
63 30 11
63 31 54
63 32 10
63 33 19
63 34 21
63 35 44
63 36 44
63 37 30
63 38 59
63 39 5
63 40 3
63 41 1
63 42 30
63 43 16
63 44 54
63 45 48
63 46 27
63 47 42
63 48 12
63 49 19
63 50 27
63 51 23
63 52 19
63 53 35
63 54 39
63 55 22
63 56 13
63 57 53
63 58 16
63 59 55
63 60 38
63 61 15
63 62 31
64 0 6
64 1 54
64 2 24
64 3 2
64 4 54
64 5 40
64 6 46
64 7 28
64 8 29
64 9 19
64 10 40
64 11 55
64 12 46
64 13 43
64 14 43
64 15 26
64 16 37
64 17 1
64 18 15
64 19 46
64 20 31
64 21 11
64 22 2
64 23 53
64 24 8
64 25 45
64 26 51
64 27 6
64 28 22
64 29 57
64 30 39
64 31 4
64 32 56
64 33 5
64 34 3
64 35 26
64 36 15
64 37 59
64 38 54
64 39 20
64 40 17
64 41 41
64 42 47
64 43 58
64 44 55
64 45 51
64 46 53
64 47 43
64 48 28
64 49 32
64 50 22
64 51 50
64 52 53
64 53 18
64 54 30
64 55 26
64 56 37
64 57 44
64 58 5
64 59 29
64 60 54
64 61 51
64 62 31
64 63 52
65 0 26
65 1 13
65 2 18
65 3 48
65 4 20
65 5 22
65 6 11
65 7 18
65 8 58
65 9 6
65 10 24
65 11 14
65 12 3
65 13 41
65 14 1
65 15 13
65 16 6
65 17 60
65 18 53
65 19 39
65 20 11
65 21 18
65 22 4
65 23 18
65 24 21
65 25 51
65 26 31
65 27 22
65 28 28
65 29 56
65 30 26
65 31 60
65 32 13
65 33 46
65 34 40
65 35 41
65 36 25
65 37 22
65 38 5
65 39 52
65 40 56
65 41 28
65 42 32
65 43 46
65 44 3
65 45 59
65 46 5
65 47 24
65 48 45
65 49 36
65 50 41
65 51 1
65 52 30
65 53 35
65 54 8
65 55 41
65 56 30
65 57 42
65 58 25
65 59 37
65 60 11
65 61 4
65 62 21
65 63 28
65 64 53
66 0 9
66 1 30
66 2 45
66 3 44
66 4 17
66 5 34
66 6 7
66 7 58
66 8 34
66 9 43
66 10 60
66 11 38
66 12 42
66 13 44
66 14 3
66 15 16
66 16 23
66 17 42
66 18 17
66 19 40
66 20 18
66 21 52
66 22 51
66 23 17
66 24 43
66 25 39
66 26 59
66 27 46
66 28 17
66 29 9
66 30 6
66 31 28
66 32 31
66 33 26
66 34 49
66 35 1
66 36 4
66 37 35
66 38 47
66 39 34
66 40 58
66 41 20
66 42 42
66 43 54
66 44 58
66 45 37
66 46 16
66 47 41
66 48 9
66 49 22
66 50 21
66 51 39
66 52 13
66 53 33
66 54 9
66 55 23
66 56 4
66 57 15
66 58 57
66 59 60
66 60 46
66 61 55
66 62 31
66 63 46
66 64 45
66 65 47
67 0 37
67 1 52
67 2 16
67 3 23
67 4 60
67 5 26
67 6 52
67 7 3
67 8 49
67 9 36
67 10 56
67 11 51
67 12 21
67 13 28
67 14 21
67 15 59
67 16 33
67 17 60
67 18 37
67 19 5
67 20 48
67 21 21
67 22 32
67 23 38
67 24 41
67 25 60
67 26 38
67 27 25
67 28 56
67 29 50
67 30 23
67 31 57
67 32 48
67 33 9
67 34 52
67 35 4
67 36 20
67 37 50
67 38 8
67 39 15
67 40 25
67 41 38
67 42 43
67 43 28
67 44 42
67 45 4
67 46 60
67 47 10
67 48 36
67 49 14
67 50 12
67 51 18
67 52 52
67 53 59
67 54 27
67 55 11
67 56 53
67 57 46
67 58 56
67 59 29
67 60 8
67 61 21
67 62 24
67 63 49
67 64 49
67 65 22
67 66 16
68 0 49
68 1 35
68 2 58
68 3 3
68 4 23
68 5 36
68 6 25
68 7 17
68 8 41
68 9 45
68 10 14
68 11 36
68 12 11
68 13 23
68 14 15
68 15 2
68 16 23
68 17 10
68 18 47
68 19 35
68 20 33
68 21 45
68 22 30
68 23 34
68 24 23
68 25 23
68 26 60
68 27 16
68 28 12
68 29 48
68 30 8
68 31 9
68 32 26
68 33 46
68 34 28
68 35 22
68 36 23
68 37 23
68 38 17
68 39 21
68 40 28
68 41 47
68 42 27
68 43 60
68 44 26
68 45 60
68 46 44
68 47 22
68 48 19
68 49 8
68 50 20
68 51 6
68 52 6
68 53 52
68 54 3
68 55 4
68 56 20
68 57 18
68 58 54
68 59 45
68 60 11
68 61 29
68 62 34
68 63 22
68 64 42
68 65 60
68 66 43
68 67 6
69 0 9
69 1 37
69 2 57
69 3 21
69 4 50
69 5 59
69 6 21
69 7 24
69 8 51
69 9 36
69 10 32
69 11 40
69 12 17
69 13 46
69 14 42
69 15 24
69 16 17
69 17 4
69 18 17
69 19 41
69 20 46
69 21 47
69 22 3
69 23 51
69 24 35
69 25 10
69 26 39
69 27 55
69 28 46
69 29 23
69 30 19
69 31 29
69 32 49
69 33 54
69 34 51
69 35 16
69 36 17
69 37 12
69 38 7
69 39 6
69 40 12
69 41 17
69 42 8
69 43 25
69 44 2
69 45 30
69 46 51
69 47 2
69 48 6
69 49 26
69 50 34
69 51 8
69 52 51
69 53 55
69 54 39
69 55 44
69 56 19
69 57 29
69 58 40
69 59 47
69 60 36
69 61 55
69 62 28
69 63 55
69 64 19
69 65 28
69 66 32
69 67 33
69 68 14
